/* Objective function */
max:34 b11 + 87 b12 + 26 b13 + 47 b14 + 76 b15
+ 43 b21 + 90 b22 + 24 b23 + 63 b24 + 97 b25
+ 60 b31 + 65 b32 + 64 b33 + 83 b34 + 54 b35
+ 89 b41 + 62 b42 + 39 b43 + 37 b44 + 18 b45
+ 27 b51 + 15 b52 + 69 b53 + 93 b54 + 96 b55;

/* Variable bounds */
 b11 + b12 + b13 + b14 + b15 = 1;
 b21 + b22 + b23 + b24 + b25 = 1;
 b31 + b32 + b33 + b34 + b35 = 1;
 b41 + b42 + b43 + b44 + b45 = 1;
 b51 + b52 + b53 + b54 + b55 = 1;
 b11 + b21 + b31 + b41 + b51 = 1;
 b12 + b22 + b32 + b42 + b52 = 1;
 b13 + b23 + b33 + b43 + b53 = 1;
 b14 + b24 + b34 + b44 + b54 = 1;
 b15 + b25 + b35 + b45 + b55 = 1;
